Cost: 1637
0-56-32-25-26-19-46-45-12-35-20-21-48-49-22-23-24-51-53-31-55-33-0
0-2-3-14-47-5-6-7-36-8-40-41-43-44-11-10-15-16-17-18-61-50-54-28-1-37-0
0-34-0
Cost: 1637
0-34-0
0-56-32-25-26-19-46-45-12-35-20-21-48-49-22-23-24-51-30-53-55-33-0
0-38-2-3-14-47-5-6-7-36-8-40-41-43-44-11-10-15-16-17-18-61-28-50-54-1-0
Cost: 1637
0-56-32-25-26-19-46-45-12-35-20-21-48-49-22-23-24-51-53-31-55-33-0
0-2-3-14-47-5-6-7-36-8-40-41-43-44-11-10-15-16-17-18-61-50-54-28-1-37-0
0-34-0
Cost: 1654
0-34-56-0
0-2-3-14-47-5-6-7-36-8-40-41-43-44-11-45-10-15-16-17-18-50-54-28-1-37-0
0-32-27-19-46-12-35-20-21-48-49-22-23-24-25-63-52-53-31-55-33-0
Cost: 1637
0-56-32-25-26-19-46-45-12-35-20-21-48-49-22-23-24-51-30-53-55-33-0
0-2-3-14-47-6-5-7-36-8-40-41-43-44-11-10-15-16-17-18-61-50-54-28-1-37-0
0-34-0
Cost: 1637
0-38-2-3-14-47-5-6-7-36-8-40-41-43-44-11-10-15-16-17-18-50-54-61-1-0
0-32-29-25-26-19-46-45-12-35-20-21-48-49-22-23-24-51-53-31-55-33-0
0-34-56-0
Cost: 1637
0-56-32-25-26-19-46-45-12-35-20-21-48-49-22-23-24-51-30-53-55-33-0
0-38-2-3-14-47-6-5-7-36-8-40-41-43-44-11-10-15-16-17-18-61-50-54-28-1-0
0-34-0
Cost: 1637
0-34-0
0-38-2-3-14-47-6-5-7-36-8-40-41-43-44-11-10-60-15-16-17-18-50-54-28-1-0
0-56-32-25-26-19-46-45-12-35-20-21-48-49-22-23-24-51-30-53-55-33-0
Cost: 1637
0-34-0
0-38-2-3-14-47-6-5-7-36-8-40-41-43-44-11-10-60-15-16-17-18-50-54-28-1-0
0-56-32-25-26-19-46-45-12-35-20-21-48-49-22-23-24-51-30-53-55-33-0
Cost: 1637
0-34-0
0-56-32-25-26-19-46-45-12-35-20-21-48-49-22-23-24-51-30-53-55-33-0
0-2-3-14-47-6-5-7-36-8-40-41-43-44-11-10-15-16-17-18-28-50-54-61-1-37-0
Cost: 1637
0-38-2-3-14-47-5-6-7-36-8-40-41-43-44-11-10-60-15-16-17-18-28-50-54-1-0
0-56-32-25-26-19-46-45-12-35-20-21-48-49-22-23-24-51-53-31-55-33-0
0-34-0
Cost: 1637
0-38-2-3-14-47-5-6-7-36-8-40-41-43-44-11-10-60-15-16-17-18-28-50-54-1-0
0-56-32-25-26-19-46-45-12-35-20-21-48-49-22-23-24-51-53-31-55-33-0
0-34-0
Cost: 1637
0-38-2-3-14-47-5-6-7-36-8-40-41-43-44-11-10-60-15-16-17-18-28-50-54-1-0
0-56-32-25-26-19-46-45-12-35-20-21-48-49-22-23-24-51-53-31-55-33-0
0-34-0
Cost: 1637
0-38-2-3-14-47-5-6-7-36-8-40-41-43-44-11-10-60-15-16-17-18-28-50-54-1-0
0-56-32-25-26-19-46-45-12-35-20-21-48-49-22-23-24-51-53-31-55-33-0
0-34-0
Cost: 1637
0-38-2-3-14-47-5-6-7-36-8-40-41-43-44-11-10-60-15-16-17-18-28-50-54-1-0
0-56-32-25-26-19-46-45-12-35-20-21-48-49-22-23-24-51-53-31-55-33-0
0-34-0
Cost: 1637
0-38-2-3-14-47-5-6-7-36-8-40-41-43-44-11-10-60-15-16-17-18-28-50-54-1-0
0-56-32-25-26-19-46-45-12-35-20-21-48-49-22-23-24-51-53-31-55-33-0
0-34-0
Cost: 1637
0-38-2-3-14-47-5-6-7-36-8-40-41-43-44-11-10-60-15-16-17-18-28-50-54-1-0
0-56-32-25-26-19-46-45-12-35-20-21-48-49-22-23-24-51-53-31-55-33-0
0-34-0
Cost: 1637
0-38-2-3-14-47-5-6-7-36-8-40-41-43-44-11-10-60-15-16-17-18-28-50-54-1-0
0-56-32-25-26-19-46-45-12-35-20-21-48-49-22-23-24-51-53-31-55-33-0
0-34-0
Cost: 1637
0-38-2-3-14-47-5-6-7-36-8-40-41-43-44-11-10-60-15-16-17-18-28-50-54-1-0
0-56-32-25-26-19-46-45-12-35-20-21-48-49-22-23-24-51-53-31-55-33-0
0-34-0
Cost: 1637
0-38-2-3-14-47-5-6-7-36-8-40-41-43-44-11-10-60-15-16-17-18-28-50-54-1-0
0-56-32-25-26-19-46-45-12-35-20-21-48-49-22-23-24-51-53-31-55-33-0
0-34-0
Cost: 1637
0-38-2-3-14-47-5-6-7-36-8-40-41-43-44-11-10-60-15-16-17-18-28-50-54-1-0
0-56-32-25-26-19-46-45-12-35-20-21-48-49-22-23-24-51-53-31-55-33-0
0-34-0
Cost: 1637
0-38-2-3-14-47-5-6-7-36-8-40-41-43-44-11-10-60-15-16-17-18-28-50-54-1-0
0-56-32-25-26-19-46-45-12-35-20-21-48-49-22-23-24-51-53-31-55-33-0
0-34-0
Cost: 1637
0-38-2-3-14-47-5-6-7-36-8-40-41-43-44-11-10-60-15-16-17-18-28-50-54-1-0
0-56-32-25-26-19-46-45-12-35-20-21-48-49-22-23-24-51-53-31-55-33-0
0-34-0
Cost: 1637
0-38-2-3-14-47-5-6-7-36-8-40-41-43-44-11-10-60-15-16-17-18-28-50-54-1-0
0-56-32-25-26-19-46-45-12-35-20-21-48-49-22-23-24-51-53-31-55-33-0
0-34-0
Cost: 1637
0-34-56-0
0-38-2-3-14-47-5-6-7-36-8-40-41-43-44-11-10-15-16-17-18-61-28-50-54-1-0
0-32-25-26-19-46-45-12-35-20-21-48-49-22-23-24-51-53-31-55-33-0
Cost: 1637
0-38-2-3-14-47-5-6-7-36-8-40-41-43-44-11-10-60-15-16-17-18-28-50-54-1-0
0-56-32-25-26-19-46-45-12-35-20-21-48-49-22-23-24-51-53-31-55-33-0
0-34-0
Cost: 1637
0-38-2-3-14-47-5-6-7-36-8-40-41-43-44-11-10-60-15-16-17-18-28-50-54-1-0
0-56-32-25-26-19-46-45-12-35-20-21-48-49-22-23-24-51-53-31-55-33-0
0-34-0
Cost: 1637
0-38-2-3-14-47-5-6-7-36-8-40-41-43-44-11-10-60-15-16-17-18-28-50-54-1-0
0-56-32-25-26-19-46-45-12-35-20-21-48-49-22-23-24-51-53-31-55-33-0
0-34-0
Cost: 1637
0-38-2-3-14-47-5-6-7-36-8-40-41-43-44-11-10-60-15-16-17-18-28-50-54-1-0
0-56-32-25-26-19-46-45-12-35-20-21-48-49-22-23-24-51-53-31-55-33-0
0-34-0
Cost: 1637
0-2-3-14-47-6-5-7-36-8-40-41-43-44-11-10-15-16-17-18-61-28-50-54-1-37-0
0-34-56-0
0-32-25-26-19-46-45-12-35-20-21-48-49-22-23-24-51-30-53-55-33-0
Cost: 1637
0-2-3-14-47-6-5-7-36-40-41-9-43-44-11-10-15-16-17-18-61-50-54-1-37-0
0-32-29-25-26-19-46-45-12-35-20-21-48-49-22-23-24-51-30-53-55-33-0
0-34-56-0
Cost: 1639
0-2-3-14-47-5-6-39-7-36-8-40-41-43-44-11-10-15-16-17-18-28-50-54-61-1-0
0-56-32-25-26-19-46-45-12-35-20-21-48-49-22-23-24-51-30-53-55-33-0
0-34-0
Cost: 1637
0-32-29-25-26-19-46-45-12-35-20-21-48-49-22-23-24-51-30-53-55-33-0
0-34-56-0
0-2-3-14-47-6-5-7-36-8-40-41-43-44-11-10-15-16-17-18-61-50-54-1-37-0
Cost: 1637
0-32-29-25-26-19-46-45-12-35-20-21-48-49-22-23-24-51-30-53-55-33-0
0-34-56-0
0-2-3-14-47-6-5-7-36-8-40-41-43-44-11-10-15-16-17-18-61-50-54-1-37-0
Cost: 1637
0-34-56-0
0-2-3-14-47-5-6-7-36-8-40-41-43-44-11-10-15-16-17-18-61-28-50-54-1-37-0
0-32-25-26-19-46-45-12-35-20-21-48-49-22-23-24-51-53-31-55-33-0
